% Logging successfully configured
%%%mzn-stat: initTime=0.006657994
%%%mzn-stat: objective=928
%%%mzn-stat: nodes=4361
%%%mzn-stat: restarts=0
%%%mzn-stat: peakDepth=420
%%%mzn-stat: solveTime=0.149623151
%%%mzn-stat: variables=827
%%%mzn-stat: propagators=578
%%%mzn-stat: failures=810
%%%mzn-stat: propagations=38581
%%%mzn-stat: nogoods=810
%%%mzn-stat: numAtomicConstraintsPropagated=0
%%%mzn-stat: allDifferentNumber1TotalHallSetSize=2837
%%%mzn-stat: allDifferentNumber1NumberOfConflicts=749
%%%mzn-stat: allDifferentNumber1MaxHallSetSize=28
%%%mzn-stat: allDifferentNumber1PropagationsTotal=7780
%%%mzn-stat: allDifferentNumber1PropagationsThatFoundConflict=749
%%%mzn-stat: circuitNumber2PropagationsThatFoundConflict=56
%%%mzn-stat: circuitNumber2TotalFixedEdgesAtConflict=2643
%%%mzn-stat: circuitNumber2NumberOfConflicts=56
%%%mzn-stat: circuitNumber2PropagationsThatPruned=543
%%%mzn-stat: circuitNumber2PropagationsTotal=4615
%%%mzn-stat: AverageConflictSize=5.62716049382716
%%%mzn-stat: NumUnitNogoodsLearned=0
%%%mzn-stat: AverageLearnedNogoodLength=15.003703703703703
%%%mzn-stat: AverageBacktrackAmount=0
%%%mzn-stat: AverageLbd=11.807407407407407
%%%mzn-stat: 2AutonomousSearchNumBackupCalled=382
%%%mzn-stat: 2AutonomousSearchNumPredicatesRemoved=0
%%%mzn-stat: 2AutonomousSearchNumCalls=383
%%%mzn-stat: 2AutonomousSearchNumPredicatesAdded=1279
%%%mzn-stat: 2AutonomousSearchAverageSizeOfHeap=3.339425587467363
%%%mzn-stat: 2AutonomousSearchNumAssignedPredicatesEncountered=1279
%%%mzn-stat-end
maxleg = 928;
succ = array1d(1..50,[2, 15, 12, 10, 9, 8, 14, 16, 13, 22, 4, 17, 11, 5, 20, 21, 24, 25, 23, 33, 1, 26, 31, 43, 44, 6, 18, 3, 27, 28, 38, 39, 47, 7, 46, 32, 36, 42, 41, 45, 48, 29, 50, 40, 34, 19, 49, 30, 37, 35]);
% time elapsed: 0.35 s
----------
%%%mzn-stat: initTime=0.006657994
%%%mzn-stat: objective=674
%%%mzn-stat: nodes=14787
%%%mzn-stat: restarts=0
%%%mzn-stat: peakDepth=420
%%%mzn-stat: solveTime=1.053390367
%%%mzn-stat: variables=827
%%%mzn-stat: propagators=578
%%%mzn-stat: failures=6726
%%%mzn-stat: propagations=217862
%%%mzn-stat: nogoods=6726
%%%mzn-stat: numAtomicConstraintsPropagated=0
%%%mzn-stat: allDifferentNumber1TotalHallSetSize=15670
%%%mzn-stat: allDifferentNumber1NumberOfConflicts=4483
%%%mzn-stat: allDifferentNumber1MaxHallSetSize=30
%%%mzn-stat: allDifferentNumber1PropagationsTotal=35348
%%%mzn-stat: allDifferentNumber1PropagationsThatFoundConflict=4483
%%%mzn-stat: circuitNumber2PropagationsThatFoundConflict=1985
%%%mzn-stat: circuitNumber2TotalFixedEdgesAtConflict=90608
%%%mzn-stat: circuitNumber2NumberOfConflicts=1985
%%%mzn-stat: circuitNumber2PropagationsThatPruned=5048
%%%mzn-stat: circuitNumber2PropagationsTotal=21094
%%%mzn-stat: AverageConflictSize=10.968034493012192
%%%mzn-stat: NumUnitNogoodsLearned=0
%%%mzn-stat: AverageLearnedNogoodLength=20.59217960154624
%%%mzn-stat: AverageBacktrackAmount=0
%%%mzn-stat: AverageLbd=16.97754980672019
%%%mzn-stat: 2AutonomousSearchNumBackupCalled=751
%%%mzn-stat: 2AutonomousSearchNumPredicatesRemoved=0
%%%mzn-stat: 2AutonomousSearchNumCalls=753
%%%mzn-stat: 2AutonomousSearchNumPredicatesAdded=3340
%%%mzn-stat: 2AutonomousSearchAverageSizeOfHeap=4.608233731739708
%%%mzn-stat: 2AutonomousSearchNumAssignedPredicatesEncountered=3470
%%%mzn-stat-end
maxleg = 674;
succ = array1d(1..50,[2, 15, 12, 10, 9, 8, 14, 16, 13, 22, 4, 17, 11, 5, 20, 21, 24, 27, 23, 25, 33, 26, 46, 28, 18, 6, 29, 30, 42, 48, 19, 39, 47, 7, 44, 32, 36, 31, 3, 43, 1, 38, 45, 40, 50, 35, 49, 41, 37, 34]);
% time elapsed: 1.24 s
----------
%%%mzn-stat: initTime=0.006657994
%%%mzn-stat: objective=522
%%%mzn-stat: nodes=134418
%%%mzn-stat: restarts=0
%%%mzn-stat: peakDepth=420
%%%mzn-stat: solveTime=25.001253458
%%%mzn-stat: variables=827
%%%mzn-stat: propagators=578
%%%mzn-stat: failures=119554
%%%mzn-stat: propagations=3029966
%%%mzn-stat: nogoods=119554
%%%mzn-stat: numAtomicConstraintsPropagated=0
%%%mzn-stat: allDifferentNumber1TotalHallSetSize=2015744
%%%mzn-stat: allDifferentNumber1NumberOfConflicts=103903
%%%mzn-stat: allDifferentNumber1MaxHallSetSize=36
%%%mzn-stat: allDifferentNumber1PropagationsTotal=336732
%%%mzn-stat: allDifferentNumber1PropagationsThatFoundConflict=103903
%%%mzn-stat: circuitNumber2PropagationsThatFoundConflict=2978
%%%mzn-stat: circuitNumber2TotalFixedEdgesAtConflict=117424
%%%mzn-stat: circuitNumber2NumberOfConflicts=2978
%%%mzn-stat: circuitNumber2PropagationsThatPruned=8520
%%%mzn-stat: circuitNumber2PropagationsTotal=125828
%%%mzn-stat: AverageConflictSize=32.026598859092964
%%%mzn-stat: NumUnitNogoodsLearned=0
%%%mzn-stat: AverageLearnedNogoodLength=42.853923749937266
%%%mzn-stat: AverageBacktrackAmount=0
%%%mzn-stat: AverageLbd=19.237524465931713
%%%mzn-stat: 2AutonomousSearchNumBackupCalled=1117
%%%mzn-stat: 2AutonomousSearchNumPredicatesRemoved=0
%%%mzn-stat: 2AutonomousSearchNumCalls=1120
%%%mzn-stat: 2AutonomousSearchNumPredicatesAdded=5452
%%%mzn-stat: 2AutonomousSearchAverageSizeOfHeap=5.523214285714285
%%%mzn-stat: 2AutonomousSearchNumAssignedPredicatesEncountered=6186
%%%mzn-stat-end
maxleg = 522;
succ = array1d(1..50,[2, 15, 12, 10, 9, 8, 14, 16, 13, 22, 4, 17, 11, 19, 20, 21, 24, 5, 23, 25, 33, 26, 31, 28, 44, 6, 18, 30, 27, 48, 38, 39, 47, 7, 46, 32, 36, 42, 3, 43, 1, 29, 45, 40, 50, 34, 49, 41, 37, 35]);
% time elapsed: 25.19 s
----------
%%%mzn-stat: initTime=0.006657994
%%%mzn-stat: objective=384
%%%mzn-stat: nodes=1194576
%%%mzn-stat: restarts=0
%%%mzn-stat: peakDepth=420
%%%mzn-stat: solveTime=248.725187102
%%%mzn-stat: variables=827
%%%mzn-stat: propagators=578
%%%mzn-stat: failures=909610
%%%mzn-stat: propagations=33442565
%%%mzn-stat: nogoods=909610
%%%mzn-stat: numAtomicConstraintsPropagated=0
%%%mzn-stat: allDifferentNumber1TotalHallSetSize=2301165
%%%mzn-stat: allDifferentNumber1NumberOfConflicts=205106
%%%mzn-stat: allDifferentNumber1MaxHallSetSize=36
%%%mzn-stat: allDifferentNumber1PropagationsTotal=3671814
%%%mzn-stat: allDifferentNumber1PropagationsThatFoundConflict=205106
%%%mzn-stat: circuitNumber2PropagationsThatFoundConflict=655855
%%%mzn-stat: circuitNumber2TotalFixedEdgesAtConflict=27955152
%%%mzn-stat: circuitNumber2NumberOfConflicts=655855
%%%mzn-stat: circuitNumber2PropagationsThatPruned=723645
%%%mzn-stat: circuitNumber2PropagationsTotal=2767546
%%%mzn-stat: AverageConflictSize=32.063670144347576
%%%mzn-stat: NumUnitNogoodsLearned=0
%%%mzn-stat: AverageLearnedNogoodLength=33.847824891986676
%%%mzn-stat: AverageBacktrackAmount=0
%%%mzn-stat: AverageLbd=21.71523290201295
%%%mzn-stat: 2AutonomousSearchNumBackupCalled=1470
%%%mzn-stat: 2AutonomousSearchNumPredicatesRemoved=0
%%%mzn-stat: 2AutonomousSearchNumCalls=1474
%%%mzn-stat: 2AutonomousSearchNumPredicatesAdded=8065
%%%mzn-stat: 2AutonomousSearchAverageSizeOfHeap=6.163500678426051
%%%mzn-stat: 2AutonomousSearchNumAssignedPredicatesEncountered=9085
%%%mzn-stat-end
maxleg = 384;
succ = array1d(1..50,[2, 15, 12, 10, 9, 8, 14, 16, 13, 22, 4, 17, 11, 34, 20, 21, 24, 5, 35, 25, 33, 26, 38, 28, 31, 6, 18, 30, 27, 48, 19, 39, 47, 46, 44, 32, 36, 42, 3, 7, 1, 29, 40, 45, 50, 23, 49, 41, 37, 43]);
% time elapsed: 248.93 s
----------
%%%mzn-stat: initTime=0.006657994
%%%mzn-stat: objective=368
%%%mzn-stat: nodes=1196994
%%%mzn-stat: restarts=0
%%%mzn-stat: peakDepth=420
%%%mzn-stat: solveTime=249.09013904
%%%mzn-stat: variables=827
%%%mzn-stat: propagators=578
%%%mzn-stat: failures=911072
%%%mzn-stat: propagations=33490405
%%%mzn-stat: nogoods=911072
%%%mzn-stat: numAtomicConstraintsPropagated=0
%%%mzn-stat: allDifferentNumber1TotalHallSetSize=2302440
%%%mzn-stat: allDifferentNumber1NumberOfConflicts=205522
%%%mzn-stat: allDifferentNumber1MaxHallSetSize=36
%%%mzn-stat: allDifferentNumber1PropagationsTotal=3677452
%%%mzn-stat: allDifferentNumber1PropagationsThatFoundConflict=205522
%%%mzn-stat: circuitNumber2PropagationsThatFoundConflict=656815
%%%mzn-stat: circuitNumber2TotalFixedEdgesAtConflict=27996210
%%%mzn-stat: circuitNumber2NumberOfConflicts=656815
%%%mzn-stat: circuitNumber2PropagationsThatPruned=724670
%%%mzn-stat: circuitNumber2PropagationsTotal=2771533
%%%mzn-stat: AverageConflictSize=32.05414390959222
%%%mzn-stat: NumUnitNogoodsLearned=0
%%%mzn-stat: AverageLearnedNogoodLength=33.84092585437814
%%%mzn-stat: AverageBacktrackAmount=0
%%%mzn-stat: AverageLbd=21.714487987777037
%%%mzn-stat: 2AutonomousSearchNumBackupCalled=1829
%%%mzn-stat: 2AutonomousSearchNumPredicatesRemoved=0
%%%mzn-stat: 2AutonomousSearchNumCalls=1834
%%%mzn-stat: 2AutonomousSearchNumPredicatesAdded=9555
%%%mzn-stat: 2AutonomousSearchAverageSizeOfHeap=6.5348964013086155
%%%mzn-stat: 2AutonomousSearchNumAssignedPredicatesEncountered=11985
%%%mzn-stat-end
maxleg = 368;
succ = array1d(1..50,[2, 15, 12, 10, 9, 8, 14, 16, 13, 22, 4, 17, 11, 34, 20, 21, 24, 27, 35, 25, 33, 26, 38, 28, 31, 6, 29, 30, 42, 48, 19, 39, 47, 46, 44, 32, 36, 18, 3, 7, 1, 5, 40, 45, 50, 23, 49, 41, 37, 43]);
% time elapsed: 249.29 s
----------
%%%mzn-stat: initTime=0.006657994
%%%mzn-stat: objective=337
%%%mzn-stat: nodes=1223472
%%%mzn-stat: restarts=1
%%%mzn-stat: peakDepth=420
%%%mzn-stat: solveTime=253.115973821
%%%mzn-stat: variables=827
%%%mzn-stat: propagators=578
%%%mzn-stat: failures=930993
%%%mzn-stat: propagations=34035132
%%%mzn-stat: nogoods=930993
%%%mzn-stat: numAtomicConstraintsPropagated=0
%%%mzn-stat: allDifferentNumber1TotalHallSetSize=2409809
%%%mzn-stat: allDifferentNumber1NumberOfConflicts=213569
%%%mzn-stat: allDifferentNumber1MaxHallSetSize=36
%%%mzn-stat: allDifferentNumber1PropagationsTotal=3724001
%%%mzn-stat: allDifferentNumber1PropagationsThatFoundConflict=213569
%%%mzn-stat: circuitNumber2PropagationsThatFoundConflict=659153
%%%mzn-stat: circuitNumber2TotalFixedEdgesAtConflict=28097672
%%%mzn-stat: circuitNumber2NumberOfConflicts=659153
%%%mzn-stat: circuitNumber2PropagationsThatPruned=726912
%%%mzn-stat: circuitNumber2PropagationsTotal=2795277
%%%mzn-stat: AverageConflictSize=31.77104661366949
%%%mzn-stat: NumUnitNogoodsLearned=0
%%%mzn-stat: AverageLearnedNogoodLength=33.88763073406567
%%%mzn-stat: AverageBacktrackAmount=0
%%%mzn-stat: AverageLbd=21.668501266926818
%%%mzn-stat: 2AutonomousSearchNumBackupCalled=2180
%%%mzn-stat: 2AutonomousSearchNumPredicatesRemoved=0
%%%mzn-stat: 2AutonomousSearchNumCalls=2260
%%%mzn-stat: 2AutonomousSearchNumPredicatesAdded=11307
%%%mzn-stat: 2AutonomousSearchAverageSizeOfHeap=94.24646017699115
%%%mzn-stat: 2AutonomousSearchNumAssignedPredicatesEncountered=18510
%%%mzn-stat-end
maxleg = 337;
succ = array1d(1..50,[2, 15, 12, 10, 9, 8, 14, 16, 13, 22, 18, 4, 23, 19, 20, 21, 3, 27, 34, 33, 47, 25, 46, 17, 26, 31, 29, 24, 42, 28, 38, 39, 32, 45, 44, 1, 36, 11, 41, 6, 48, 5, 7, 43, 50, 35, 49, 30, 37, 40]);
% time elapsed: 253.31 s
----------
%%%mzn-stat: initTime=0.006657994
%%%mzn-stat: objective=330
%%%mzn-stat: nodes=1227765
%%%mzn-stat: restarts=2
%%%mzn-stat: peakDepth=420
%%%mzn-stat: solveTime=253.548963304
%%%mzn-stat: variables=827
%%%mzn-stat: propagators=578
%%%mzn-stat: failures=933089
%%%mzn-stat: propagations=34107163
%%%mzn-stat: nogoods=933089
%%%mzn-stat: numAtomicConstraintsPropagated=0
%%%mzn-stat: allDifferentNumber1TotalHallSetSize=2409936
%%%mzn-stat: allDifferentNumber1NumberOfConflicts=213600
%%%mzn-stat: allDifferentNumber1MaxHallSetSize=36
%%%mzn-stat: allDifferentNumber1PropagationsTotal=3732309
%%%mzn-stat: allDifferentNumber1PropagationsThatFoundConflict=213600
%%%mzn-stat: circuitNumber2PropagationsThatFoundConflict=661211
%%%mzn-stat: circuitNumber2TotalFixedEdgesAtConflict=28188913
%%%mzn-stat: circuitNumber2NumberOfConflicts=661211
%%%mzn-stat: circuitNumber2PropagationsThatPruned=727936
%%%mzn-stat: circuitNumber2PropagationsTotal=2801978
%%%mzn-stat: AverageConflictSize=31.76292615173901
%%%mzn-stat: NumUnitNogoodsLearned=0
%%%mzn-stat: AverageLearnedNogoodLength=33.85766952562939
%%%mzn-stat: AverageBacktrackAmount=0
%%%mzn-stat: AverageLbd=21.660739757943777
%%%mzn-stat: 2AutonomousSearchNumBackupCalled=2526
%%%mzn-stat: 2AutonomousSearchNumPredicatesRemoved=0
%%%mzn-stat: 2AutonomousSearchNumCalls=2695
%%%mzn-stat: 2AutonomousSearchNumPredicatesAdded=12707
%%%mzn-stat: 2AutonomousSearchAverageSizeOfHeap=166.95473098330243
%%%mzn-stat: 2AutonomousSearchNumAssignedPredicatesEncountered=25416
%%%mzn-stat-end
maxleg = 330;
succ = array1d(1..50,[2, 15, 12, 10, 9, 8, 14, 16, 13, 22, 18, 4, 23, 19, 20, 47, 3, 27, 34, 33, 36, 25, 46, 17, 26, 31, 29, 24, 42, 28, 38, 39, 32, 45, 44, 1, 21, 11, 41, 6, 48, 5, 7, 43, 50, 35, 49, 30, 37, 40]);
% time elapsed: 253.75 s
----------
%%%mzn-stat: initTime=0.006657994
%%%mzn-stat: objective=329
%%%mzn-stat: nodes=1228157
%%%mzn-stat: restarts=2
%%%mzn-stat: peakDepth=420
%%%mzn-stat: solveTime=253.55156829
%%%mzn-stat: variables=827
%%%mzn-stat: propagators=578
%%%mzn-stat: failures=933089
%%%mzn-stat: propagations=34108177
%%%mzn-stat: nogoods=933089
%%%mzn-stat: numAtomicConstraintsPropagated=0
%%%mzn-stat: allDifferentNumber1TotalHallSetSize=2409936
%%%mzn-stat: allDifferentNumber1NumberOfConflicts=213600
%%%mzn-stat: allDifferentNumber1MaxHallSetSize=36
%%%mzn-stat: allDifferentNumber1PropagationsTotal=3732361
%%%mzn-stat: allDifferentNumber1PropagationsThatFoundConflict=213600
%%%mzn-stat: circuitNumber2PropagationsThatFoundConflict=661211
%%%mzn-stat: circuitNumber2TotalFixedEdgesAtConflict=28188913
%%%mzn-stat: circuitNumber2NumberOfConflicts=661211
%%%mzn-stat: circuitNumber2PropagationsThatPruned=727937
%%%mzn-stat: circuitNumber2PropagationsTotal=2802014
%%%mzn-stat: AverageConflictSize=31.76292615173901
%%%mzn-stat: NumUnitNogoodsLearned=0
%%%mzn-stat: AverageLearnedNogoodLength=33.85766952562939
%%%mzn-stat: AverageBacktrackAmount=0
%%%mzn-stat: AverageLbd=21.660739757943777
%%%mzn-stat: 2AutonomousSearchNumBackupCalled=2884
%%%mzn-stat: 2AutonomousSearchNumPredicatesRemoved=0
%%%mzn-stat: 2AutonomousSearchNumCalls=3054
%%%mzn-stat: 2AutonomousSearchNumPredicatesAdded=12707
%%%mzn-stat: 2AutonomousSearchAverageSizeOfHeap=148.30517354289455
%%%mzn-stat: 2AutonomousSearchNumAssignedPredicatesEncountered=28397
%%%mzn-stat-end
maxleg = 329;
succ = array1d(1..50,[2, 15, 12, 10, 9, 8, 14, 16, 13, 22, 18, 4, 11, 5, 20, 33, 3, 27, 34, 36, 1, 25, 46, 17, 26, 31, 29, 24, 42, 28, 19, 39, 37, 7, 44, 32, 47, 23, 41, 6, 48, 38, 40, 45, 50, 35, 49, 30, 21, 43]);
% time elapsed: 253.76 s
----------
=====ERROR=====
% time elapsed: 1629.04 s
